500
    1    35    35
    2    44    44
    3    26    26
    4     6     6
    5    48    48
    6    16    16
    7    21    21
    8    42    42
    9    22    22
   10    49    49
   11    45    45
   12    37    37
   13    43    43
   14     7     7
   15    45    45
   16    15    15
   17     5     5
   18    46    46
   19     2     2
   20    22    22
   21     9     9
   22    41    41
   23     1     1
   24     9     9
   25    22    22
   26    17    17
   27    44    44
   28    48    48
   29    38    38
   30     7     7
   31    24    24
   32    44    44
   33    15    15
   34    34    34
   35    32    32
   36    16    16
   37    17    17
   38    44    44
   39    34    34
   40    43    43
   41    49    49
   42    33    33
   43    33    33
   44    31    31
   45    32    32
   46    28    28
   47    22    22
   48    50    50
   49    24    24
   50    17    17
   51    38    38
   52    24    24
   53     6     6
   54    20    20
   55    45    45
   56    19    19
   57    45    45
   58    44    44
   59    29    29
   60    46    46
   61    49    49
   62    47    47
   63    27    27
   64    16    16
   65    47    47
   66     8     8
   67    19    19
   68    39    39
   69    42    42
   70     7     7
   71     7     7
   72    19    19
   73    22    22
   74    37    37
   75    20    20
   76    31    31
   77    48    48
   78    26    26
   79    50    50
   80    37    37
   81    45    45
   82    22    22
   83    17    17
   84    13    13
   85    22    22
   86    31    31
   87    45    45
   88    43    43
   89    13    13
   90     8     8
   91    48    48
   92     3     3
   93    37    37
   94    14    14
   95    23    23
   96    36    36
   97    29    29
   98    24    24
   99    24    24
  100    39    39
  101    40    40
  102    29    29
  103     4     4
  104    42    42
  105    17    17
  106    39    39
  107    46    46
  108    41    41
  109    10    10
  110    46    46
  111     3     3
  112    44    44
  113    41    41
  114    16    16
  115    24    24
  116    24    24
  117    30    30
  118     8     8
  119    38    38
  120    11    11
  121    40    40
  122    50    50
  123    40    40
  124    14    14
  125    49    49
  126    39    39
  127    46    46
  128     1     1
  129    15    15
  130    16    16
  131    28    28
  132    39    39
  133    20    20
  134    33    33
  135    36    36
  136    25    25
  137    22    22
  138    44    44
  139     1     1
  140    49    49
  141    23    23
  142    13    13
  143    31    31
  144    29    29
  145     8     8
  146    11    11
  147    35    35
  148    15    15
  149     3     3
  150    36    36
  151    42    42
  152    36    36
  153    42    42
  154    36    36
  155    25    25
  156    39    39
  157    36    36
  158    24    24
  159    12    12
  160    41    41
  161     9     9
  162    41    41
  163    13    13
  164    40    40
  165    38    38
  166    31    31
  167    29    29
  168    14    14
  169    37    37
  170    17    17
  171    19    19
  172    22    22
  173    11    11
  174    18    18
  175    46    46
  176    19    19
  177    42    42
  178     6     6
  179    11    11
  180    32    32
  181    14    14
  182     6     6
  183    36    36
  184     1     1
  185    30    30
  186    35    35
  187    49    49
  188     2     2
  189    44    44
  190    50    50
  191    49    49
  192    44    44
  193    41    41
  194    37    37
  195    30    30
  196    24    24
  197    48    48
  198    42    42
  199    40    40
  200    24    24
  201    25    25
  202    10    10
  203    26    26
  204    47    47
  205    22    22
  206    10    10
  207    16    16
  208    49    49
  209     1     1
  210    19    19
  211    48    48
  212    13    13
  213    35    35
  214     8     8
  215     6     6
  216     4     4
  217    14    14
  218    18    18
  219    33    33
  220    28    28
  221    50    50
  222    37    37
  223    21    21
  224    46    46
  225     7     7
  226     3     3
  227    23    23
  228    21    21
  229    11    11
  230    12    12
  231    16    16
  232    47    47
  233     9     9
  234    41    41
  235    45    45
  236    29    29
  237    43    43
  238    26    26
  239    12    12
  240    47    47
  241    35    35
  242    19    19
  243    10    10
  244    20    20
  245    31    31
  246    34    34
  247    34    34
  248    23    23
  249     3     3
  250    45    45
  251    10    10
  252    18    18
  253    49    49
  254    22    22
  255    41    41
  256     8     8
  257    22    22
  258    33    33
  259    27    27
  260     8     8
  261     9     9
  262    20    20
  263     7     7
  264    33    33
  265     8     8
  266    48    48
  267    20    20
  268    30    30
  269    30    30
  270    19    19
  271     8     8
  272     3     3
  273    11    11
  274    20    20
  275    50    50
  276     9     9
  277    39    39
  278    37    37
  279    22    22
  280    25    25
  281    35    35
  282    30    30
  283    20    20
  284     4     4
  285    39    39
  286    41    41
  287    19    19
  288    29    29
  289    43    43
  290    26    26
  291    22    22
  292    12    12
  293    28    28
  294    39    39
  295    11    11
  296    43    43
  297    38    38
  298    16    16
  299    48    48
  300    38    38
  301    47    47
  302    10    10
  303    16    16
  304     6     6
  305    41    41
  306     9     9
  307    38    38
  308    31    31
  309    45    45
  310     4     4
  311    26    26
  312    20    20
  313    46    46
  314     3     3
  315    49    49
  316    25    25
  317     5     5
  318    31    31
  319    43    43
  320    15    15
  321    37    37
  322    38    38
  323    40    40
  324     9     9
  325    14    14
  326    18    18
  327    15    15
  328    33    33
  329    35    35
  330    32    32
  331    14    14
  332     7     7
  333    10    10
  334    41    41
  335    43    43
  336    26    26
  337    13    13
  338    46    46
  339     9     9
  340    27    27
  341    10    10
  342     8     8
  343    11    11
  344    36    36
  345    12    12
  346    34    34
  347     9     9
  348     8     8
  349    10    10
  350    29    29
  351    18    18
  352    40    40
  353    48    48
  354    35    35
  355    15    15
  356    24    24
  357    26    26
  358    26    26
  359    41    41
  360    12    12
  361    39    39
  362    39    39
  363    44    44
  364    21    21
  365     6     6
  366    25    25
  367    40    40
  368    17    17
  369    28    28
  370     1     1
  371    21    21
  372    43    43
  373    32    32
  374    49    49
  375    49    49
  376     2     2
  377    37    37
  378     9     9
  379    37    37
  380    17    17
  381    22    22
  382     6     6
  383    22    22
  384    33    33
  385    48    48
  386    17    17
  387     6     6
  388    16    16
  389    11    11
  390    30    30
  391    35    35
  392    25    25
  393    25    25
  394    30    30
  395    23    23
  396    12    12
  397    14    14
  398    16    16
  399    43    43
  400    16    16
  401    32    32
  402    48    48
  403     2     2
  404    41    41
  405    40    40
  406    14    14
  407    26    26
  408     4     4
  409    12    12
  410    26    26
  411     2     2
  412    22    22
  413     4     4
  414    31    31
  415    11    11
  416    43    43
  417    23    23
  418    50    50
  419     3     3
  420    27    27
  421    50    50
  422    17    17
  423    27    27
  424     5     5
  425    20    20
  426    13    13
  427     2     2
  428    13    13
  429     3     3
  430    41    41
  431    31    31
  432    48    48
  433    10    10
  434     9     9
  435    25    25
  436    45    45
  437    19    19
  438    31    31
  439    18    18
  440    25    25
  441    27    27
  442    33    33
  443    12    12
  444    38    38
  445    41    41
  446    23    23
  447     5     5
  448    16    16
  449     7     7
  450    20    20
  451     5     5
  452    15    15
  453    17    17
  454    10    10
  455    29    29
  456    11    11
  457    35    35
  458    22    22
  459    46    46
  460    38    38
  461     7     7
  462    14    14
  463    24    24
  464    43    43
  465    22    22
  466     6     6
  467    40    40
  468     7     7
  469    25    25
  470    39    39
  471     1     1
  472     2     2
  473    41    41
  474    42    42
  475    27    27
  476    10    10
  477    30    30
  478     7     7
  479    32    32
  480    32    32
  481     3     3
  482    37    37
  483    43    43
  484    43    43
  485    15    15
  486    14    14
  487    33    33
  488    36    36
  489    14    14
  490    37    37
  491    16    16
  492     2     2
  493    13    13
  494    22    22
  495    37    37
  496    13    13
  497     6     6
  498     1     1
  499    34    34
  500    27    27
2159
